147
1000
7
326
51
345
150
491
138
489
253
90
7
103
285
258
156
55
27
277
180
23
252
33
275
425
39
409
198
352
228
191
33
77
24
211
86
101
456
193
317
26
61
204
436
124
327
187
144
331
169
140
217
183
211
460
12
332
97
296
105
377
90
282
37
409
57
266
247
231
7
359
220
292
55
41
428
395
257
187
58
69
482
314
432
23
27
199
60
228
231
245
149
104
182
73
25
179
474
394
141
320
309
277
116
359
395
192
223
83
73
1
78
307
158
43
69
273
455
131
395
241
60
193
18
111
8
46
340
313
75
360
324
169
194
462
45
497
198
242
12
381
40
482
40
109
304
368
112
